1	1
2	1
3	2
4	3
5	1
6	2
7	2
8	1
9	1
10	1
11	1
12	2
13	4
14	2
15	1
16	5
17	5
18	2
19	2
20	2
21	1
22	2
23	2
24	2
25	1
26	5
27	1
28	5
29	1
30	2
31	5
32	1
33	5
34	2
35	2
36	2
37	5
38	5
39	1
40	5
41	1
42	1
43	5
44	2
45	5
46	2
47	1
48	1
49	2
50	1
51	2
52	2
53	1
54	1
55	2
56	1
57	5
58	3
59	2
60	2
61	3
62	2
63	2
64	5
65	1
66	2
67	3
68	2
69	3
70	1
71	5
72	1
73	1
74	1
75	2
76	3
77	1
78	1
79	5
80	2
81	1
82	1
83	2
84	1
85	2
86	1
87	1
88	1
89	5
90	5
91	1
92	2
93	1
94	2
95	1
96	3
97	2
98	1
99	2
100	1
